<number of tasks>
70

<cycle time>
160

<task times>
1 17
2 66
3 54
4 52
5 6
6 88
7 21
8 128
9 68
10 70
11 85
12 21
13 134
14 135
15 94
16 90
17 50
18 143
19 19
20 54
21 50
22 40
23 73
24 12
25 152
26 42
27 45
28 74
29 26
30 11
31 31
32 50
33 102
34 46
35 35
36 40
37 2
38 1
39 3
40 13
41 16
42 25
43 21
44 43
45 30
46 83
47 89
48 56
49 59
50 43
51 11
52 26
53 44
54 121
55 38
56 68
57 22
58 7
59 16
60 32
61 25
62 27
63 156
64 28
65 15
66 26
67 18
68 72
69 23
70 27

<precedence relations>
1,2
1,41
1,69
1,70
2,3
3,4
3,68
4,6
4,7
5,6
5,24
5,30
6,8
7,8
8,12
9,10
10,11
11,12
12,13
12,14
13,23
14,23
15,16
16,17
16,18
17,19
18,19
19,20
19,22
19,57
20,21
21,23
22,23
23,25
23,31
23,33
24,25
25,26
25,27
25,28
25,29
26,35
27,35
28,35
29,35
30,31
31,32
32,35
33,34
34,35
35,36
35,44
35,48
35,51
35,53
35,56
35,60
35,61
35,62
36,37
37,38
38,39
39,40
40,42
41,42
42,43
43,50
44,45
45,46
46,47
47,50
48,49
49,50
51,52
52,54
53,54
54,55
57,58
58,59
59,60
61,65
62,63
63,64
64,65
64,66
64,67

<setup times forward>
1,9:2
1,10:1
1,11:1
1,15:4
1,16:2
1,17:1
1,18:5
1,19:2
1,20:6
1,21:6
1,22:6
1,30:4
1,41:1
1,57:2
1,58:6
1,59:3
1,69:1
1,70:3
2,9:2
2,10:1
2,11:1
2,15:4
2,16:2
2,17:1
2,18:5
2,19:2
2,20:6
2,21:6
2,22:6
2,30:4
2,41:1
2,57:2
2,58:6
2,59:3
2,69:1
2,70:3
3,4:4
3,9:2
3,10:1
3,11:1
3,15:4
3,16:2
3,17:1
3,18:5
3,19:2
3,20:6
3,21:6
3,22:6
3,30:4
3,41:1
3,57:2
3,58:6
3,59:3
3,68:1
3,69:1
3,70:3
4,5:4
4,6:3
4,7:3
4,9:6
4,10:3
4,11:5
4,16:6
4,17:3
4,18:9
4,19:2
4,20:10
4,21:10
4,22:10
4,24:4
4,41:3
4,57:6
4,58:10
4,59:1
4,68:3
4,69:5
4,70:7
5,4:4
5,6:1
5,7:1
5,9:2
5,10:1
5,11:1
5,15:4
5,16:2
5,17:1
5,18:5
5,19:2
5,20:6
5,21:6
5,22:6
5,30:4
5,41:1
5,57:2
5,58:6
5,59:3
5,68:1
5,69:1
5,70:3
6,8:4
6,9:3
6,11:2
6,15:3
6,16:3
6,18:6
6,19:1
6,20:7
6,21:7
6,22:7
6,24:1
6,30:3
6,57:3
6,58:7
6,59:2
6,69:2
6,70:4
7,5:1
7,8:4
7,9:3
7,11:2
7,15:3
7,16:3
7,18:6
7,19:1
7,20:7
7,21:7
7,22:7
7,24:1
7,30:3
7,57:3
7,58:7
7,59:2
7,69:2
7,70:4
8,9:1
8,10:4
8,11:2
8,12:2
8,15:7
8,16:1
8,17:4
8,18:2
8,19:5
8,20:3
8,21:3
8,22:3
8,24:3
8,30:7
8,41:4
8,57:1
8,58:3
8,59:6
8,68:4
8,69:2
9,1:2
9,2:2
9,3:2
9,4:6
9,5:2
9,6:3
9,7:3
9,8:1
9,10:3
9,15:6
9,17:3
9,18:3
9,19:4
9,20:4
9,21:4
9,22:4
9,24:2
9,30:6
9,41:3
9,58:4
9,59:5
9,68:3
9,69:1
9,70:1
10,1:1
10,2:1
10,3:1
10,4:3
10,5:1
10,8:4
10,11:2
10,15:3
10,16:3
10,18:6
10,19:1
10,20:7
10,21:7
10,22:7
10,24:1
10,30:3
10,57:3
10,58:7
10,59:2
10,69:2
10,70:4
11,1:1
11,2:1
11,3:1
11,4:5
11,5:1
11,6:2
11,7:2
11,8:2
11,15:5
11,16:1
11,17:2
11,18:4
11,19:3
11,20:5
11,21:5
11,22:5
11,24:1
11,30:5
11,41:2
11,57:1
11,58:5
11,59:4
11,68:2
11,70:2
12,13:1
12,14:3
12,15:5
12,16:1
12,17:2
12,18:4
12,19:3
12,20:5
12,21:5
12,22:5
12,24:1
12,30:5
12,41:2
12,57:1
12,58:5
12,59:4
12,68:2
12,70:2
13,14:4
13,15:6
13,17:3
13,18:3
13,19:4
13,20:4
13,21:4
13,22:4
13,23:1
13,24:2
13,30:6
13,41:3
13,58:4
13,59:5
13,68:3
13,69:1
13,70:1
14,13:4
14,15:2
14,16:4
14,17:1
14,18:7
14,20:8
14,21:8
14,22:8
14,23:3
14,24:2
14,30:2
14,41:1
14,57:4
14,58:8
14,59:1
14,68:1
14,69:3
14,70:5
15,1:4
15,2:4
15,3:4
15,5:4
15,6:3
15,7:3
15,8:7
15,9:6
15,10:3
15,11:5
15,12:5
15,13:6
15,14:2
15,16:6
15,24:4
15,41:3
15,68:3
15,69:5
15,70:7
16,1:2
16,2:2
16,3:2
16,4:6
16,5:2
16,6:3
16,7:3
16,8:1
16,10:3
16,11:1
16,12:1
16,14:4
16,17:3
16,18:3
16,24:2
16,30:6
16,41:3
16,68:3
16,69:1
16,70:1
17,1:1
17,2:1
17,3:1
17,4:3
17,5:1
17,8:4
17,9:3
17,11:2
17,12:2
17,13:3
17,14:1
17,18:6
17,19:1
17,24:1
17,30:3
17,69:2
17,70:4
18,1:5
18,2:5
18,3:5
18,4:9
18,5:5
18,6:6
18,7:6
18,8:2
18,9:3
18,10:6
18,11:4
18,12:4
18,13:3
18,14:7
18,17:6
18,19:7
18,24:5
18,30:9
18,41:6
18,68:6
18,69:4
18,70:2
19,1:2
19,2:2
19,3:2
19,4:2
19,5:2
19,6:1
19,7:1
19,8:5
19,9:4
19,10:1
19,11:3
19,12:3
19,13:4
19,20:8
19,22:8
19,24:2
19,30:2
19,41:1
19,57:4
19,68:1
19,69:3
19,70:5
20,1:6
20,2:6
20,3:6
20,4:10
20,5:6
20,6:7
20,7:7
20,8:3
20,9:4
20,10:7
20,11:5
20,12:5
20,13:4
20,14:8
20,24:6
20,30:10
20,41:7
20,57:4
20,59:9
20,68:7
20,69:5
20,70:3
21,1:6
21,2:6
21,3:6
21,4:10
21,5:6
21,6:7
21,7:7
21,8:3
21,9:4
21,10:7
21,11:5
21,12:5
21,13:4
21,14:8
21,23:5
21,24:6
21,30:10
21,41:7
21,57:4
21,59:9
21,68:7
21,69:5
21,70:3
22,1:6
22,2:6
22,3:6
22,4:10
22,5:6
22,6:7
22,7:7
22,8:3
22,9:4
22,10:7
22,11:5
22,12:5
22,13:4
22,14:8
22,23:5
22,24:6
22,30:10
22,41:7
22,57:4
22,59:9
22,68:7
22,69:5
22,70:3
23,24:1
23,25:2
23,30:5
23,33:4
23,41:2
23,57:1
23,58:5
23,59:4
23,68:2
23,70:2
24,4:4
24,6:1
24,7:1
24,8:3
24,9:2
24,10:1
24,11:1
24,12:1
24,13:2
24,14:2
24,15:4
24,16:2
24,17:1
24,18:5
24,19:2
24,20:6
24,21:6
24,22:6
24,23:1
24,25:1
24,30:4
24,31:1
24,32:1
24,33:3
24,34:3
24,41:1
24,57:2
24,58:6
24,59:3
24,68:1
24,69:1
24,70:3
25,26:7
25,27:8
25,28:8
25,29:8
25,30:3
25,31:2
25,32:2
25,33:2
25,34:2
25,57:3
25,58:7
25,59:2
25,69:2
25,70:4
26,27:1
26,28:1
26,29:1
26,30:10
26,31:5
26,32:5
26,33:9
26,34:9
26,41:7
26,57:4
26,59:9
26,68:7
26,69:5
26,70:3
27,26:1
27,30:11
27,31:6
27,32:6
27,33:10
27,34:10
27,35:1
27,41:8
27,57:5
27,58:1
27,59:10
27,68:8
27,69:6
27,70:4
28,26:1
28,30:11
28,31:6
28,32:6
28,33:10
28,34:10
28,35:1
28,41:8
28,57:5
28,58:1
28,59:10
28,68:8
28,69:6
28,70:4
29,26:1
29,30:11
29,31:6
29,32:6
29,33:10
29,34:10
29,35:1
29,41:8
29,57:5
29,58:1
29,59:10
29,68:8
29,69:6
29,70:4
30,1:4
30,2:4
30,3:4
30,6:3
30,7:3
30,8:7
30,9:6
30,10:3
30,11:5
30,12:5
30,13:6
30,14:2
30,16:6
30,17:3
30,18:9
30,19:2
30,20:10
30,21:10
30,22:10
30,23:5
30,24:4
30,25:3
30,26:10
30,27:11
30,28:11
30,29:11
30,31:5
30,33:1
30,34:1
30,41:3
30,57:6
30,58:10
30,59:1
30,68:3
30,69:5
30,70:7
31,24:1
31,25:2
31,26:5
31,27:6
31,28:6
31,29:6
31,33:4
31,34:4
31,41:2
31,57:1
31,58:5
31,59:4
31,68:2
31,70:2
32,24:1
32,25:2
32,26:5
32,27:6
32,28:6
32,29:6
32,33:4
32,34:4
32,35:5
32,41:2
32,57:1
32,58:5
32,59:4
32,68:2
32,70:2
33,24:3
33,25:2
33,26:9
33,27:10
33,28:10
33,29:10
33,30:1
33,31:4
33,32:4
33,41:2
33,57:5
33,58:9
33,68:2
33,69:4
33,70:6
34,24:3
34,25:2
34,26:9
34,27:10
34,28:10
34,29:10
34,30:1
34,31:4
34,32:4
34,35:9
34,41:2
34,57:5
34,58:9
34,68:2
34,69:4
34,70:6
35,36:9
35,41:7
35,48:9
35,53:10
35,56:9
35,57:4
35,59:9
35,60:1
35,61:1
35,68:7
35,69:5
35,70:3
36,41:2
36,44:9
36,45:1
36,46:1
36,49:1
36,51:9
36,52:2
36,53:1
36,54:2
36,55:1
36,57:5
36,58:9
36,60:8
36,61:8
36,62:9
36,63:5
36,65:1
36,66:8
36,67:8
36,68:2
36,69:4
36,70:6
37,41:2
37,44:9
37,45:1
37,46:1
37,49:1
37,51:9
37,52:2
37,53:1
37,54:2
37,55:1
37,57:5
37,58:9
37,60:8
37,61:8
37,62:9
37,63:5
37,65:1
37,66:8
37,67:8
37,68:2
37,69:4
37,70:6
38,41:2
38,44:9
38,45:1
38,46:1
38,49:1
38,51:9
38,52:2
38,53:1
38,54:2
38,55:1
38,57:5
38,58:9
38,60:8
38,61:8
38,62:9
38,63:5
38,65:1
38,66:8
38,67:8
38,68:2
38,69:4
38,70:6
39,41:2
39,44:9
39,45:1
39,46:1
39,49:1
39,51:9
39,52:2
39,53:1
39,54:2
39,55:1
39,57:5
39,58:9
39,60:8
39,61:8
39,62:9
39,63:5
39,65:1
39,66:8
39,67:8
39,68:2
39,69:4
39,70:6
40,41:2
40,42:8
40,44:9
40,45:1
40,46:1
40,49:1
40,51:9
40,52:2
40,53:1
40,54:2
40,55:1
40,57:5
40,58:9
40,60:8
40,61:8
40,62:9
40,63:5
40,65:1
40,66:8
40,67:8
40,68:2
40,69:4
40,70:6
41,2:1
41,3:1
41,4:3
41,5:1
41,8:4
41,9:3
41,11:2
41,12:2
41,13:3
41,14:1
41,15:3
41,16:3
41,18:6
41,19:1
41,20:7
41,21:7
41,22:7
41,23:2
41,24:1
41,26:7
41,27:8
41,28:8
41,29:8
41,30:3
41,31:2
41,32:2
41,33:2
41,34:2
41,35:7
41,36:2
41,37:2
41,38:2
41,39:2
41,40:2
41,42:6
41,44:7
41,45:3
41,46:3
41,47:2
41,48:2
41,49:1
41,51:7
41,53:3
41,55:1
41,56:2
41,57:3
41,58:7
41,59:2
41,60:6
41,61:6
41,62:7
41,63:3
41,64:2
41,65:1
41,66:6
41,67:6
41,69:2
41,70:4
42,44:1
42,45:9
42,46:9
42,47:8
42,48:8
42,49:7
42,51:1
42,52:6
42,53:9
42,54:6
42,55:7
42,56:8
42,57:3
42,58:1
42,59:8
42,62:1
42,63:3
42,64:8
42,65:7
42,68:6
42,69:4
42,70:2
43,44:1
43,45:9
43,46:9
43,47:8
43,48:8
43,49:7
43,50:7
43,51:1
43,52:6
43,53:9
43,54:6
43,55:7
43,56:8
43,57:3
43,58:1
43,59:8
43,62:1
43,63:3
43,64:8
43,65:7
43,68:6
43,69:4
43,70:2
44,36:9
44,37:9
44,38:9
44,39:9
44,40:9
44,41:7
44,42:1
44,43:1
44,45:10
44,48:9
44,49:8
44,52:7
44,53:10
44,54:7
44,55:8
44,56:9
44,57:4
44,59:9
44,60:1
44,61:1
44,63:4
44,64:9
44,65:8
44,66:1
44,67:1
44,68:7
44,69:5
44,70:3
45,36:1
45,37:1
45,38:1
45,39:1
45,40:1
45,41:3
45,42:9
45,43:9
45,48:1
45,49:2
45,51:10
45,52:3
45,54:3
45,55:2
45,56:1
45,57:6
45,58:10
45,59:1
45,60:9
45,61:9
45,62:10
45,63:6
45,64:1
45,65:2
45,66:9
45,67:9
45,68:3
45,69:5
45,70:7
46,36:1
46,37:1
46,38:1
46,39:1
46,40:1
46,41:3
46,42:9
46,43:9
46,47:1
46,48:1
46,49:2
46,51:10
46,52:3
46,54:3
46,55:2
46,56:1
46,57:6
46,58:10
46,59:1
46,60:9
46,61:9
46,62:10
46,63:6
46,64:1
46,65:2
46,66:9
46,67:9
46,68:3
46,69:5
46,70:7
47,41:2
47,42:8
47,43:8
47,49:1
47,50:1
47,51:9
47,52:2
47,53:1
47,54:2
47,55:1
47,57:5
47,58:9
47,60:8
47,61:8
47,62:9
47,63:5
47,65:1
47,66:8
47,67:8
47,68:2
47,69:4
47,70:6
48,41:2
48,42:8
48,43:8
48,44:9
48,45:1
48,46:1
48,49:1
48,51:9
48,52:2
48,53:1
48,54:2
48,55:1
48,57:5
48,58:9
48,60:8
48,61:8
48,62:9
48,63:5
48,65:1
48,66:8
48,67:8
48,68:2
48,69:4
48,70:6
49,36:1
49,37:1
49,38:1
49,39:1
49,40:1
49,41:1
49,42:7
49,43:7
49,44:8
49,45:2
49,46:2
49,47:1
49,51:8
49,52:1
49,53:2
49,54:1
49,56:1
49,57:4
49,58:8
49,59:1
49,60:7
49,61:7
49,62:8
49,63:4
49,64:1
49,66:7
49,67:7
49,68:1
49,69:3
49,70:5
50,51:8
50,52:1
50,53:2
50,54:1
50,56:1
50,57:4
50,58:8
50,59:1
50,60:7
50,61:7
50,62:8
50,63:4
50,64:1
50,66:7
50,67:7
50,68:1
50,69:3
50,70:5
51,36:9
51,37:9
51,38:9
51,39:9
51,40:9
51,41:7
51,42:1
51,43:1
51,45:10
51,46:10
51,47:9
51,48:9
51,49:8
51,50:8
51,52:7
51,53:10
51,56:9
51,57:4
51,59:9
51,60:1
51,61:1
51,63:4
51,64:9
51,65:8
51,66:1
51,67:1
51,68:7
51,69:5
51,70:3
52,36:2
52,37:2
52,38:2
52,39:2
52,40:2
52,42:6
52,43:6
52,44:7
52,45:3
52,46:3
52,47:2
52,48:2
52,49:1
52,50:1
52,53:3
52,56:2
52,57:3
52,58:7
52,59:2
52,60:6
52,61:6
52,62:7
52,63:3
52,64:2
52,65:1
52,66:6
52,67:6
52,69:2
52,70:4
53,36:1
53,37:1
53,38:1
53,39:1
53,40:1
53,41:3
53,42:9
53,43:9
53,44:10
53,47:1
53,48:1
53,49:2
53,50:2
53,51:10
53,52:3
53,54:3
53,56:1
53,57:6
53,58:10
53,59:1
53,60:9
53,61:9
53,62:10
53,63:6
53,64:1
53,65:2
53,66:9
53,67:9
53,68:3
53,69:5
53,70:7
54,36:2
54,37:2
54,38:2
54,39:2
54,40:2
54,42:6
54,43:6
54,44:7
54,45:3
54,46:3
54,47:2
54,48:2
54,49:1
54,50:1
54,55:1
54,56:2
54,57:3
54,58:7
54,59:2
54,60:6
54,61:6
54,62:7
54,63:3
54,64:2
54,65:1
54,66:6
54,67:6
54,69:2
54,70:4
55,36:1
55,37:1
55,38:1
55,39:1
55,40:1
55,41:1
55,42:7
55,43:7
55,44:8
55,45:2
55,46:2
55,47:1
55,48:1
55,56:1
55,57:4
55,58:8
55,59:1
55,60:7
55,61:7
55,62:8
55,63:4
55,64:1
55,66:7
55,67:7
55,68:1
55,69:3
55,70:5
56,41:2
56,42:8
56,43:8
56,44:9
56,45:1
56,46:1
56,49:1
56,50:1
56,51:9
56,52:2
56,53:1
56,54:2
56,55:1
56,57:5
56,58:9
56,60:8
56,61:8
56,62:9
56,63:5
56,65:1
56,66:8
56,67:8
56,68:2
56,69:4
56,70:6
57,1:2
57,2:2
57,3:2
57,4:6
57,5:2
57,6:3
57,7:3
57,8:1
57,10:3
57,11:1
57,12:1
57,14:4
57,20:4
57,21:4
57,22:4
57,23:1
57,24:2
57,25:3
57,26:4
57,27:5
57,28:5
57,29:5
57,30:6
57,31:1
57,32:1
57,33:5
57,34:5
57,35:4
57,36:5
57,37:5
57,38:5
57,39:5
57,40:5
57,41:3
57,42:3
57,43:3
57,44:4
57,45:6
57,46:6
57,47:5
57,48:5
57,49:4
57,50:4
57,51:4
57,52:3
57,53:6
57,54:3
57,55:4
57,56:5
57,58:4
57,61:3
57,62:4
57,64:5
57,65:4
57,66:3
57,67:3
57,68:3
57,69:1
57,70:1
58,1:6
58,2:6
58,3:6
58,4:10
58,5:6
58,6:7
58,7:7
58,8:3
58,9:4
58,10:7
58,11:5
58,12:5
58,13:4
58,14:8
58,23:5
58,24:6
58,25:7
58,27:1
58,28:1
58,29:1
58,30:10
58,31:5
58,32:5
58,33:9
58,34:9
58,36:9
58,37:9
58,38:9
58,39:9
58,40:9
58,41:7
58,42:1
58,43:1
58,45:10
58,46:10
58,47:9
58,48:9
58,49:8
58,50:8
58,52:7
58,53:10
58,54:7
58,55:8
58,56:9
58,59:9
58,61:1
58,63:4
58,64:9
58,65:8
58,66:1
58,67:1
58,68:7
58,69:5
58,70:3
59,1:3
59,2:3
59,3:3
59,4:1
59,5:3
59,6:2
59,7:2
59,8:6
59,9:5
59,10:2
59,11:4
59,12:4
59,13:5
59,14:1
59,20:9
59,21:9
59,22:9
59,23:4
59,24:3
59,25:2
59,26:9
59,27:10
59,28:10
59,29:10
59,30:1
59,31:4
59,32:4
59,35:9
59,41:2
59,42:8
59,43:8
59,44:9
59,45:1
59,46:1
59,49:1
59,50:1
59,51:9
59,52:2
59,53:1
59,54:2
59,55:1
59,60:8
59,61:8
59,62:9
59,63:5
59,65:1
59,66:8
59,67:8
59,68:2
59,69:4
59,70:6
60,36:8
60,37:8
60,38:8
60,39:8
60,40:8
60,41:6
60,44:1
60,45:9
60,46:9
60,47:8
60,48:8
60,49:7
60,50:7
60,51:1
60,52:6
60,53:9
60,54:6
60,55:7
60,56:8
60,62:1
60,63:3
60,64:8
60,65:7
60,68:6
60,69:4
60,70:2
61,36:8
61,37:8
61,38:8
61,39:8
61,40:8
61,41:6
61,44:1
61,45:9
61,46:9
61,47:8
61,48:8
61,49:7
61,50:7
61,51:1
61,52:6
61,53:9
61,54:6
61,55:7
61,56:8
61,57:3
61,58:1
61,59:8
61,62:1
61,63:3
61,64:8
61,65:7
61,68:6
61,69:4
61,70:2
62,36:9
62,37:9
62,38:9
62,39:9
62,40:9
62,41:7
62,42:1
62,43:1
62,45:10
62,46:10
62,47:9
62,48:9
62,49:8
62,50:8
62,52:7
62,53:10
62,54:7
62,55:8
62,56:9
62,57:4
62,59:9
62,60:1
62,61:1
62,63:4
62,68:7
62,69:5
62,70:3
63,36:5
63,37:5
63,38:5
63,39:5
63,40:5
63,41:3
63,42:3
63,43:3
63,44:4
63,45:6
63,46:6
63,47:5
63,48:5
63,49:4
63,50:4
63,51:4
63,52:3
63,53:6
63,54:3
63,55:4
63,56:5
63,58:4
63,59:5
63,60:3
63,61:3
63,64:5
63,68:3
63,69:1
63,70:1
64,41:2
64,42:8
64,43:8
64,44:9
64,45:1
64,46:1
64,49:1
64,50:1
64,51:9
64,52:2
64,53:1
64,54:2
64,55:1
64,57:5
64,58:9
64,60:8
64,61:8
64,65:1
64,66:8
64,67:8
64,68:2
64,69:4
64,70:6
65,36:1
65,37:1
65,38:1
65,39:1
65,40:1
65,41:1
65,42:7
65,43:7
65,44:8
65,45:2
65,46:2
65,47:1
65,48:1
65,51:8
65,52:1
65,53:2
65,54:1
65,56:1
65,57:4
65,58:8
65,59:1
65,60:7
65,66:7
65,67:7
65,68:1
65,69:3
65,70:5
66,36:8
66,37:8
66,38:8
66,39:8
66,40:8
66,41:6
66,44:1
66,45:9
66,46:9
66,47:8
66,48:8
66,49:7
66,50:7
66,51:1
66,52:6
66,53:9
66,54:6
66,55:7
66,56:8
66,57:3
66,58:1
66,59:8
66,65:7
66,68:6
66,69:4
66,70:2
67,36:8
67,37:8
67,38:8
67,39:8
67,40:8
67,41:6
67,44:1
67,45:9
67,46:9
67,47:8
67,48:8
67,49:7
67,50:7
67,51:1
67,52:6
67,53:9
67,54:6
67,55:7
67,56:8
67,57:3
67,58:1
67,59:8
67,65:7
67,68:6
67,69:4
67,70:2
68,4:3
68,5:1
68,8:4
68,9:3
68,11:2
68,12:2
68,13:3
68,14:1
68,15:3
68,16:3
68,18:6
68,19:1
68,20:7
68,21:7
68,22:7
68,23:2
68,24:1
68,26:7
68,27:8
68,28:8
68,29:8
68,30:3
68,31:2
68,32:2
68,33:2
68,34:2
68,35:7
68,36:2
68,37:2
68,38:2
68,39:2
68,40:2
68,42:6
68,43:6
68,44:7
68,45:3
68,46:3
68,47:2
68,48:2
68,49:1
68,50:1
68,51:7
68,53:3
68,55:1
68,56:2
68,57:3
68,58:7
68,59:2
68,60:6
68,61:6
68,62:7
68,63:3
68,64:2
68,65:1
68,66:6
68,67:6
68,69:2
68,70:4
69,2:1
69,3:1
69,4:5
69,5:1
69,6:2
69,7:2
69,8:2
69,9:1
69,10:2
69,13:1
69,14:3
69,15:5
69,16:1
69,17:2
69,18:4
69,19:3
69,20:5
69,21:5
69,22:5
69,24:1
69,25:2
69,26:5
69,27:6
69,28:6
69,29:6
69,30:5
69,33:4
69,34:4
69,35:5
69,36:4
69,37:4
69,38:4
69,39:4
69,40:4
69,41:2
69,42:4
69,43:4
69,44:5
69,45:5
69,46:5
69,47:4
69,48:4
69,49:3
69,50:3
69,51:5
69,52:2
69,53:5
69,54:2
69,55:3
69,56:4
69,57:1
69,58:5
69,59:4
69,60:4
69,61:4
69,62:5
69,63:1
69,64:4
69,65:3
69,66:4
69,67:4
69,68:2
69,70:2
70,2:3
70,3:3
70,4:7
70,5:3
70,6:4
70,7:4
70,9:1
70,10:4
70,11:2
70,12:2
70,13:1
70,14:5
70,15:7
70,16:1
70,17:4
70,18:2
70,19:5
70,20:3
70,21:3
70,22:3
70,23:2
70,24:3
70,25:4
70,26:3
70,27:4
70,28:4
70,29:4
70,30:7
70,31:2
70,32:2
70,33:6
70,34:6
70,35:3
70,36:6
70,37:6
70,38:6
70,39:6
70,40:6
70,41:4
70,42:2
70,43:2
70,44:3
70,45:7
70,46:7
70,47:6
70,48:6
70,49:5
70,50:5
70,51:3
70,52:4
70,53:7
70,54:4
70,55:5
70,56:6
70,57:1
70,58:3
70,59:6
70,60:2
70,61:2
70,62:3
70,63:1
70,64:6
70,65:5
70,66:2
70,67:2
70,68:4
70,69:2

<setup times backward>
1,9:2
1,11:1
1,16:2
1,18:5
1,20:6
1,21:6
1,22:6
1,57:2
1,58:6
2,9:2
2,11:1
2,16:2
2,18:5
2,20:6
2,21:6
2,22:6
2,57:2
2,58:6
2,69:1
2,70:3
3,9:2
3,11:1
3,16:2
3,18:5
3,20:6
3,21:6
3,22:6
3,57:2
3,58:6
3,69:1
3,70:3
4,1:4
4,2:4
4,3:4
4,5:4
4,9:6
4,10:3
4,11:5
4,16:6
4,17:3
4,18:9
4,19:2
4,20:10
4,21:10
4,22:10
4,24:4
4,41:3
4,57:6
4,58:10
4,59:1
4,68:3
4,69:5
4,70:7
5,9:2
5,11:1
5,16:2
5,18:5
5,20:6
5,21:6
5,22:6
5,57:2
5,58:6
5,69:1
5,70:3
6,1:1
6,2:1
6,3:1
6,5:1
6,9:3
6,11:2
6,16:3
6,18:6
6,20:7
6,21:7
6,22:7
6,24:1
6,57:3
6,58:7
6,69:2
6,70:4
7,1:1
7,2:1
7,3:1
7,5:1
7,9:3
7,11:2
7,16:3
7,18:6
7,20:7
7,21:7
7,22:7
7,24:1
7,57:3
7,58:7
7,69:2
7,70:4
8,18:2
8,20:3
8,21:3
8,22:3
8,58:3
9,8:1
9,18:3
9,20:4
9,21:4
9,22:4
9,58:4
9,70:1
10,1:1
10,2:1
10,3:1
10,5:1
10,8:4
10,9:3
10,16:3
10,18:6
10,20:7
10,21:7
10,22:7
10,24:1
10,57:3
10,58:7
10,69:2
10,70:4
11,8:2
11,9:1
11,16:1
11,18:4
11,20:5
11,21:5
11,22:5
11,57:1
11,58:5
11,70:2
12,8:2
12,9:1
12,16:1
12,18:4
12,20:5
12,21:5
12,22:5
12,57:1
12,58:5
12,70:2
13,8:1
13,18:3
13,20:4
13,21:4
13,22:4
13,58:4
13,70:1
14,1:2
14,2:2
14,3:2
14,5:2
14,6:1
14,7:1
14,8:5
14,9:4
14,10:1
14,11:3
14,12:3
14,13:4
14,16:4
14,17:1
14,18:7
14,20:8
14,21:8
14,22:8
14,24:2
14,41:1
14,57:4
14,58:8
14,68:1
14,69:3
14,70:5
15,1:4
15,2:4
15,3:4
15,5:4
15,6:3
15,7:3
15,8:7
15,9:6
15,10:3
15,11:5
15,12:5
15,13:6
15,14:2
15,24:4
15,41:3
15,68:3
15,69:5
15,70:7
16,8:1
16,70:1
17,1:1
17,2:1
17,3:1
17,5:1
17,8:4
17,9:3
17,11:2
17,12:2
17,13:3
17,16:3
17,18:6
17,24:1
17,69:2
17,70:4
19,1:2
19,2:2
19,3:2
19,5:2
19,6:1
19,7:1
19,8:5
19,9:4
19,10:1
19,11:3
19,12:3
19,13:4
19,16:4
19,17:1
19,18:7
19,24:2
19,41:1
19,68:1
19,69:3
19,70:5
23,8:2
23,9:1
23,13:1
23,16:1
23,18:4
23,20:5
23,21:5
23,22:5
23,57:1
23,58:5
23,70:2
24,8:3
24,9:2
24,11:1
24,12:1
24,13:2
24,16:2
24,18:5
24,20:6
24,21:6
24,22:6
24,23:1
24,31:1
24,32:1
24,57:2
24,58:6
24,69:1
24,70:3
25,1:1
25,2:1
25,3:1
25,5:1
25,8:4
25,9:3
25,11:2
25,12:2
25,13:3
25,16:3
25,18:6
25,20:7
25,21:7
25,22:7
25,23:2
25,24:1
25,31:2
25,32:2
25,57:3
25,58:7
25,69:2
25,70:4
26,27:1
26,28:1
26,29:1
30,1:4
30,2:4
30,3:4
30,5:4
30,6:3
30,7:3
30,8:7
30,9:6
30,10:3
30,11:5
30,12:5
30,13:6
30,14:2
30,16:6
30,17:3
30,18:9
30,19:2
30,20:10
30,21:10
30,22:10
30,23:5
30,24:4
30,25:3
30,26:10
30,27:11
30,28:11
30,29:11
30,33:1
30,34:1
30,41:3
30,57:6
30,58:10
30,59:1
30,68:3
30,69:5
30,70:7
31,8:2
31,9:1
31,13:1
31,16:1
31,18:4
31,20:5
31,21:5
31,22:5
31,26:5
31,27:6
31,28:6
31,29:6
31,57:1
31,58:5
31,70:2
32,8:2
32,9:1
32,13:1
32,16:1
32,18:4
32,20:5
32,21:5
32,22:5
32,26:5
32,27:6
32,28:6
32,29:6
32,57:1
32,58:5
32,70:2
33,1:3
33,2:3
33,3:3
33,5:3
33,6:2
33,7:2
33,8:6
33,9:5
33,10:2
33,11:4
33,12:4
33,13:5
33,14:1
33,16:5
33,17:2
33,18:8
33,19:1
33,20:9
33,21:9
33,22:9
33,23:4
33,24:3
33,25:2
33,26:9
33,27:10
33,28:10
33,29:10
33,31:4
33,32:4
33,41:2
33,57:5
33,58:9
33,68:2
33,69:4
33,70:6
34,1:3
34,2:3
34,3:3
34,5:3
34,6:2
34,7:2
34,8:6
34,9:5
34,10:2
34,11:4
34,12:4
34,13:5
34,14:1
34,16:5
34,17:2
34,18:8
34,19:1
34,20:9
34,21:9
34,22:9
34,23:4
34,24:3
34,25:2
34,26:9
34,27:10
34,28:10
34,29:10
34,31:4
34,32:4
34,41:2
34,57:5
34,58:9
34,68:2
34,69:4
34,70:6
35,27:1
35,28:1
35,29:1
36,1:3
36,2:3
36,3:3
36,5:3
36,6:2
36,7:2
36,8:6
36,9:5
36,10:2
36,11:4
36,12:4
36,13:5
36,14:1
36,16:5
36,17:2
36,18:8
36,19:1
36,20:9
36,21:9
36,22:9
36,23:4
36,24:3
36,25:2
36,26:9
36,27:10
36,28:10
36,29:10
36,31:4
36,32:4
36,35:9
36,41:2
36,44:9
36,49:1
36,51:9
36,52:2
36,54:2
36,55:1
36,57:5
36,58:9
36,60:8
36,61:8
36,62:9
36,63:5
36,65:1
36,66:8
36,67:8
36,68:2
36,69:4
36,70:6
37,1:3
37,2:3
37,3:3
37,5:3
37,6:2
37,7:2
37,8:6
37,9:5
37,10:2
37,11:4
37,12:4
37,13:5
37,14:1
37,16:5
37,17:2
37,18:8
37,19:1
37,20:9
37,21:9
37,22:9
37,23:4
37,24:3
37,25:2
37,26:9
37,27:10
37,28:10
37,29:10
37,31:4
37,32:4
37,35:9
37,41:2
37,44:9
37,49:1
37,51:9
37,52:2
37,54:2
37,55:1
37,57:5
37,58:9
37,60:8
37,61:8
37,62:9
37,63:5
37,65:1
37,66:8
37,67:8
37,68:2
37,69:4
37,70:6
38,1:3
38,2:3
38,3:3
38,5:3
38,6:2
38,7:2
38,8:6
38,9:5
38,10:2
38,11:4
38,12:4
38,13:5
38,14:1
38,16:5
38,17:2
38,18:8
38,19:1
38,20:9
38,21:9
38,22:9
38,23:4
38,24:3
38,25:2
38,26:9
38,27:10
38,28:10
38,29:10
38,31:4
38,32:4
38,35:9
38,41:2
38,44:9
38,49:1
38,51:9
38,52:2
38,54:2
38,55:1
38,57:5
38,58:9
38,60:8
38,61:8
38,62:9
38,63:5
38,65:1
38,66:8
38,67:8
38,68:2
38,69:4
38,70:6
39,1:3
39,2:3
39,3:3
39,5:3
39,6:2
39,7:2
39,8:6
39,9:5
39,10:2
39,11:4
39,12:4
39,13:5
39,14:1
39,16:5
39,17:2
39,18:8
39,19:1
39,20:9
39,21:9
39,22:9
39,23:4
39,24:3
39,25:2
39,26:9
39,27:10
39,28:10
39,29:10
39,31:4
39,32:4
39,35:9
39,41:2
39,44:9
39,49:1
39,51:9
39,52:2
39,54:2
39,55:1
39,57:5
39,58:9
39,60:8
39,61:8
39,62:9
39,63:5
39,65:1
39,66:8
39,67:8
39,68:2
39,69:4
39,70:6
40,1:3
40,2:3
40,3:3
40,5:3
40,6:2
40,7:2
40,8:6
40,9:5
40,10:2
40,11:4
40,12:4
40,13:5
40,14:1
40,16:5
40,17:2
40,18:8
40,19:1
40,20:9
40,21:9
40,22:9
40,23:4
40,24:3
40,25:2
40,26:9
40,27:10
40,28:10
40,29:10
40,31:4
40,32:4
40,35:9
40,41:2
40,44:9
40,49:1
40,51:9
40,52:2
40,54:2
40,55:1
40,57:5
40,58:9
40,60:8
40,61:8
40,62:9
40,63:5
40,65:1
40,66:8
40,67:8
40,68:2
40,69:4
40,70:6
41,1:1
41,2:1
41,3:1
41,5:1
41,8:4
41,9:3
41,11:2
41,12:2
41,13:3
41,16:3
41,18:6
41,20:7
41,21:7
41,22:7
41,23:2
41,24:1
41,26:7
41,27:8
41,28:8
41,29:8
41,31:2
41,32:2
41,35:7
41,44:7
41,51:7
41,57:3
41,58:7
41,60:6
41,61:6
41,62:7
41,63:3
41,66:6
41,67:6
41,69:2
41,70:4
42,20:1
42,21:1
42,22:1
42,26:1
42,27:2
42,28:2
42,29:2
42,35:1
42,44:1
42,51:1
42,58:1
42,62:1
43,20:1
43,21:1
43,22:1
43,26:1
43,27:2
43,28:2
43,29:2
43,35:1
43,44:1
43,51:1
43,58:1
43,62:1
44,27:1
44,28:1
44,29:1
45,1:4
45,2:4
45,3:4
45,5:4
45,6:3
45,7:3
45,8:7
45,9:6
45,10:3
45,11:5
45,12:5
45,13:6
45,14:2
45,16:6
45,17:3
45,18:9
45,19:2
45,20:10
45,21:10
45,22:10
45,23:5
45,24:4
45,25:3
45,26:10
45,27:11
45,28:11
45,29:11
45,31:5
45,32:5
45,33:1
45,34:1
45,35:10
45,36:1
45,37:1
45,38:1
45,39:1
45,40:1
45,41:3
45,42:9
45,43:9
45,44:10
45,48:1
45,49:2
45,51:10
45,52:3
45,54:3
45,55:2
45,56:1
45,57:6
45,58:10
45,59:1
45,60:9
45,61:9
45,62:10
45,63:6
45,64:1
45,65:2
45,66:9
45,67:9
45,68:3
45,69:5
45,70:7
46,1:4
46,2:4
46,3:4
46,5:4
46,6:3
46,7:3
46,8:7
46,9:6
46,10:3
46,11:5
46,12:5
46,13:6
46,14:2
46,16:6
46,17:3
46,18:9
46,19:2
46,20:10
46,21:10
46,22:10
46,23:5
46,24:4
46,25:3
46,26:10
46,27:11
46,28:11
46,29:11
46,31:5
46,32:5
46,33:1
46,34:1
46,35:10
46,36:1
46,37:1
46,38:1
46,39:1
46,40:1
46,41:3
46,42:9
46,43:9
46,44:10
46,48:1
46,49:2
46,51:10
46,52:3
46,54:3
46,55:2
46,56:1
46,57:6
46,58:10
46,59:1
46,60:9
46,61:9
46,62:10
46,63:6
46,64:1
46,65:2
46,66:9
46,67:9
46,68:3
46,69:5
46,70:7
47,1:3
47,2:3
47,3:3
47,5:3
47,6:2
47,7:2
47,8:6
47,9:5
47,10:2
47,11:4
47,12:4
47,13:5
47,14:1
47,16:5
47,17:2
47,18:8
47,19:1
47,20:9
47,21:9
47,22:9
47,23:4
47,24:3
47,25:2
47,26:9
47,27:10
47,28:10
47,29:10
47,31:4
47,32:4
47,35:9
47,41:2
47,42:8
47,43:8
47,44:9
47,49:1
47,51:9
47,52:2
47,54:2
47,55:1
47,57:5
47,58:9
47,60:8
47,61:8
47,62:9
47,63:5
47,65:1
47,66:8
47,67:8
47,68:2
47,69:4
47,70:6
48,1:3
48,2:3
48,3:3
48,5:3
48,6:2
48,7:2
48,8:6
48,9:5
48,10:2
48,11:4
48,12:4
48,13:5
48,14:1
48,16:5
48,17:2
48,18:8
48,19:1
48,20:9
48,21:9
48,22:9
48,23:4
48,24:3
48,25:2
48,26:9
48,27:10
48,28:10
48,29:10
48,31:4
48,32:4
48,35:9
48,41:2
48,42:8
48,43:8
48,44:9
48,51:9
48,52:2
48,54:2
48,55:1
48,57:5
48,58:9
48,60:8
48,61:8
48,62:9
48,63:5
48,65:1
48,66:8
48,67:8
48,68:2
48,69:4
48,70:6
49,1:2
49,2:2
49,3:2
49,5:2
49,6:1
49,7:1
49,8:5
49,9:4
49,10:1
49,11:3
49,12:3
49,13:4
49,16:4
49,17:1
49,18:7
49,20:8
49,21:8
49,22:8
49,23:3
49,24:2
49,25:1
49,26:8
49,27:9
49,28:9
49,29:9
49,31:3
49,32:3
49,35:8
49,41:1
49,42:7
49,43:7
49,44:8
49,51:8
49,52:1
49,54:1
49,57:4
49,58:8
49,60:7
49,61:7
49,62:8
49,63:4
49,66:7
49,67:7
49,68:1
49,69:3
49,70:5
50,1:2
50,2:2
50,3:2
50,5:2
50,6:1
50,7:1
50,8:5
50,9:4
50,10:1
50,11:3
50,12:3
50,13:4
50,16:4
50,17:1
50,18:7
50,20:8
50,21:8
50,22:8
50,23:3
50,24:2
50,25:1
50,26:8
50,27:9
50,28:9
50,29:9
50,31:3
50,32:3
50,35:8
50,41:1
50,42:7
50,43:7
50,44:8
50,51:8
50,52:1
50,54:1
50,57:4
50,58:8
50,60:7
50,61:7
50,62:8
50,63:4
50,66:7
50,67:7
50,68:1
50,69:3
50,70:5
51,27:1
51,28:1
51,29:1
52,1:1
52,2:1
52,3:1
52,5:1
52,8:4
52,9:3
52,11:2
52,12:2
52,13:3
52,16:3
52,18:6
52,20:7
52,21:7
52,22:7
52,23:2
52,24:1
52,26:7
52,27:8
52,28:8
52,29:8
52,31:2
52,32:2
52,35:7
52,42:6
52,43:6
52,44:7
52,51:7
52,57:3
52,58:7
52,60:6
52,61:6
52,62:7
52,63:3
52,66:6
52,67:6
52,69:2
52,70:4
53,1:4
53,2:4
53,3:4
53,5:4
53,6:3
53,7:3
53,8:7
53,9:6
53,10:3
53,11:5
53,12:5
53,13:6
53,14:2
53,16:6
53,17:3
53,18:9
53,19:2
53,20:10
53,21:10
53,22:10
53,23:5
53,24:4
53,25:3
53,26:10
53,27:11
53,28:11
53,29:11
53,31:5
53,32:5
53,33:1
53,34:1
53,35:10
53,36:1
53,37:1
53,38:1
53,39:1
53,40:1
53,41:3
53,42:9
53,43:9
53,44:10
53,47:1
53,48:1
53,49:2
53,50:2
53,51:10
53,52:3
53,56:1
53,57:6
53,58:10
53,59:1
53,60:9
53,61:9
53,62:10
53,63:6
53,64:1
53,65:2
53,66:9
53,67:9
53,68:3
53,69:5
53,70:7
54,1:1
54,2:1
54,3:1
54,5:1
54,8:4
54,9:3
54,11:2
54,12:2
54,13:3
54,16:3
54,18:6
54,20:7
54,21:7
54,22:7
54,23:2
54,24:1
54,26:7
54,27:8
54,28:8
54,29:8
54,31:2
54,32:2
54,35:7
54,42:6
54,43:6
54,44:7
54,51:7
54,57:3
54,58:7
54,60:6
54,61:6
54,62:7
54,63:3
54,66:6
54,67:6
54,69:2
54,70:4
55,1:2
55,2:2
55,3:2
55,5:2
55,6:1
55,7:1
55,8:5
55,9:4
55,10:1
55,11:3
55,12:3
55,13:4
55,16:4
55,17:1
55,18:7
55,20:8
55,21:8
55,22:8
55,23:3
55,24:2
55,25:1
55,26:8
55,27:9
55,28:9
55,29:9
55,31:3
55,32:3
55,35:8
55,41:1
55,42:7
55,43:7
55,44:8
55,51:8
55,52:1
55,54:1
55,57:4
55,58:8
55,60:7
55,61:7
55,62:8
55,63:4
55,66:7
55,67:7
55,68:1
55,69:3
55,70:5
56,1:3
56,2:3
56,3:3
56,5:3
56,6:2
56,7:2
56,8:6
56,9:5
56,10:2
56,11:4
56,12:4
56,13:5
56,14:1
56,16:5
56,17:2
56,18:8
56,19:1
56,20:9
56,21:9
56,22:9
56,23:4
56,24:3
56,25:2
56,26:9
56,27:10
56,28:10
56,29:10
56,31:4
56,32:4
56,35:9
56,41:2
56,42:8
56,43:8
56,44:9
56,49:1
56,50:1
56,51:9
56,52:2
56,54:2
56,55:1
56,57:5
56,58:9
56,60:8
56,61:8
56,62:9
56,63:5
56,65:1
56,66:8
56,67:8
56,68:2
56,69:4
56,70:6
57,8:1
57,18:3
57,20:4
57,21:4
57,22:4
57,26:4
57,27:5
57,28:5
57,29:5
57,35:4
57,42:3
57,43:3
57,44:4
57,51:4
57,61:3
57,62:4
57,66:3
57,67:3
57,70:1
58,27:1
58,28:1
58,29:1
59,1:3
59,2:3
59,3:3
59,5:3
59,6:2
59,7:2
59,8:6
59,9:5
59,10:2
59,11:4
59,12:4
59,13:5
59,14:1
59,16:5
59,17:2
59,18:8
59,19:1
59,20:9
59,21:9
59,22:9
59,23:4
59,24:3
59,25:2
59,26:9
59,27:10
59,28:10
59,29:10
59,31:4
59,32:4
59,35:9
59,41:2
59,42:8
59,43:8
59,44:9
59,49:1
59,50:1
59,51:9
59,52:2
59,54:2
59,55:1
59,57:5
59,58:9
59,61:8
59,62:9
59,63:5
59,65:1
59,66:8
59,67:8
59,68:2
59,69:4
59,70:6
60,20:1
60,21:1
60,22:1
60,26:1
60,27:2
60,28:2
60,29:2
60,35:1
60,44:1
60,51:1
60,58:1
60,62:1
61,20:1
61,21:1
61,22:1
61,26:1
61,27:2
61,28:2
61,29:2
61,35:1
61,44:1
61,51:1
61,58:1
61,62:1
62,27:1
62,28:1
62,29:1
63,8:1
63,18:3
63,20:4
63,21:4
63,22:4
63,26:4
63,27:5
63,28:5
63,29:5
63,35:4
63,42:3
63,43:3
63,44:4
63,51:4
63,58:4
63,60:3
63,61:3
63,62:4
63,70:1
64,1:3
64,2:3
64,3:3
64,5:3
64,6:2
64,7:2
64,8:6
64,9:5
64,10:2
64,11:4
64,12:4
64,13:5
64,14:1
64,16:5
64,17:2
64,18:8
64,19:1
64,20:9
64,21:9
64,22:9
64,23:4
64,24:3
64,25:2
64,26:9
64,27:10
64,28:10
64,29:10
64,31:4
64,32:4
64,35:9
64,41:2
64,42:8
64,43:8
64,44:9
64,49:1
64,50:1
64,51:9
64,52:2
64,54:2
64,55:1
64,57:5
64,58:9
64,60:8
64,61:8
64,62:9
64,63:5
64,68:2
64,69:4
64,70:6
65,1:2
65,2:2
65,3:2
65,5:2
65,6:1
65,7:1
65,8:5
65,9:4
65,10:1
65,11:3
65,12:3
65,13:4
65,16:4
65,17:1
65,18:7
65,20:8
65,21:8
65,22:8
65,23:3
65,24:2
65,25:1
65,26:8
65,27:9
65,28:9
65,29:9
65,31:3
65,32:3
65,35:8
65,41:1
65,42:7
65,43:7
65,44:8
65,51:8
65,52:1
65,54:1
65,57:4
65,58:8
65,60:7
65,61:7
65,62:8
65,63:4
65,66:7
65,67:7
65,68:1
65,69:3
65,70:5
66,20:1
66,21:1
66,22:1
66,26:1
66,27:2
66,28:2
66,29:2
66,35:1
66,44:1
66,51:1
66,58:1
66,62:1
67,20:1
67,21:1
67,22:1
67,26:1
67,27:2
67,28:2
67,29:2
67,35:1
67,44:1
67,51:1
67,58:1
67,62:1
68,1:1
68,2:1
68,3:1
68,5:1
68,8:4
68,9:3
68,11:2
68,12:2
68,13:3
68,16:3
68,18:6
68,20:7
68,21:7
68,22:7
68,23:2
68,24:1
68,26:7
68,27:8
68,28:8
68,29:8
68,31:2
68,32:2
68,35:7
68,42:6
68,43:6
68,44:7
68,51:7
68,57:3
68,58:7
68,60:6
68,61:6
68,62:7
68,63:3
68,66:6
68,67:6
68,69:2
68,70:4
69,8:2
69,9:1
69,13:1
69,16:1
69,18:4
69,20:5
69,21:5
69,22:5
69,26:5
69,27:6
69,28:6
69,29:6
69,35:5
69,42:4
69,43:4
69,44:5
69,51:5
69,57:1
69,58:5
69,60:4
69,61:4
69,62:5
69,63:1
69,66:4
69,67:4
69,70:2
70,18:2
70,20:3
70,21:3
70,22:3
70,26:3
70,27:4
70,28:4
70,29:4
70,35:3
70,42:2
70,43:2
70,44:3
70,51:3
70,58:3
70,60:2
70,61:2
70,62:3
70,66:2
70,67:2

<end>

<optimal SALBP-1 value>
23


<rand seed>
467321153

